90 4005
1 2 102
1 3 106
1 4 71
1 5 188
1 6 20
1 7 102
1 8 121
1 9 214
1 10 87
1 11 99
1 12 151
1 13 130
1 14 149
1 15 257
1 16 191
1 17 160
1 18 21
1 19 252
1 20 235
1 21 48
1 22 58
1 23 169
1 24 187
1 25 189
1 26 174
1 27 50
1 28 54
1 29 243
1 30 130
1 31 134
1 32 20
1 33 166
1 34 88
1 35 13
1 36 241
1 37 264
1 38 52
1 39 91
1 40 263
1 41 34
1 42 205
1 43 80
1 44 49
1 45 1
1 46 53
1 47 105
1 48 259
1 49 190
1 50 217
1 51 43
1 52 161
1 53 201
1 54 269
1 55 214
1 56 251
1 57 189
1 58 212
1 59 207
1 60 236
1 61 52
1 62 216
1 63 251
1 64 187
1 65 40
1 66 156
1 67 14
1 68 64
1 69 8
1 70 128
1 71 135
1 72 62
1 73 138
1 74 80
1 75 162
1 76 260
1 77 230
1 78 40
1 79 27
1 80 134
1 81 200
1 82 267
1 83 32
1 84 47
1 85 61
1 86 215
1 87 98
1 88 171
1 89 213
1 90 34
2 3 226
2 4 100
2 5 130
2 6 256
2 7 4
2 8 217
2 9 254
2 10 206
2 11 14
2 12 41
2 13 178
2 14 62
2 15 230
2 16 240
2 17 51
2 18 95
2 19 221
2 20 230
2 21 236
2 22 142
2 23 170
2 24 28
2 25 35
2 26 12
2 27 159
2 28 186
2 29 242
2 30 85
2 31 65
2 32 169
2 33 44
2 34 61
2 35 133
2 36 27
2 37 107
2 38 43
2 39 127
2 40 230
2 41 189
2 42 224
2 43 120
2 44 115
2 45 232
2 46 258
2 47 197
2 48 136
2 49 164
2 50 224
2 51 233
2 52 171
2 53 151
2 54 159
2 55 95
2 56 232
2 57 179
2 58 112
2 59 51
2 60 267
2 61 112
2 62 100
2 63 112
2 64 80
2 65 186
2 66 112
2 67 1
2 68 129
2 69 219
2 70 53
2 71 223
2 72 224
2 73 125
2 74 129
2 75 52
2 76 171
2 77 217
2 78 159
2 79 197
2 80 246
2 81 202
2 82 183
2 83 122
2 84 254
2 85 97
2 86 197
2 87 239
2 88 143
2 89 96
2 90 200
3 4 123
3 5 186
3 6 258
3 7 147
3 8 251
3 9 146
3 10 147
3 11 198
3 12 127
3 13 38
3 14 128
3 15 266
3 16 150
3 17 98
3 18 262
3 19 251
3 20 143
3 21 111
3 22 59
3 23 1
3 24 253
3 25 139
3 26 36
3 27 159
3 28 8
3 29 232
3 30 98
3 31 146
3 32 207
3 33 130
3 34 151
3 35 53
3 36 119
3 37 160
3 38 115
3 39 74
3 40 112
3 41 103
3 42 253
3 43 226
3 44 111
3 45 98
3 46 152
3 47 193
3 48 162
3 49 207
3 50 168
3 51 160
3 52 67
3 53 134
3 54 194
3 55 127
3 56 32
3 57 175
3 58 21
3 59 237
3 60 157
3 61 37
3 62 229
3 63 50
3 64 263
3 65 26
3 66 225
3 67 96
3 68 146
3 69 3
3 70 34
3 71 191
3 72 48
3 73 16
3 74 171
3 75 219
3 76 157
3 77 45
3 78 5
3 79 98
3 80 232
3 81 36
3 82 180
3 83 94
3 84 98
3 85 187
3 86 115
3 87 190
3 88 252
3 89 160
3 90 255
4 5 127
4 6 17
4 7 222
4 8 53
4 9 57
4 10 173
4 11 113
4 12 150
4 13 126
4 14 154
4 15 103
4 16 245
4 17 175
4 18 38
4 19 169
4 20 246
4 21 25
4 22 12
4 23 35
4 24 172
4 25 19
4 26 263
4 27 141
4 28 142
4 29 91
4 30 214
4 31 50
4 32 152
4 33 185
4 34 62
4 35 189
4 36 124
4 37 149
4 38 57
4 39 179
4 40 169
4 41 53
4 42 100
4 43 263
4 44 52
4 45 59
4 46 107
4 47 4
4 48 102
4 49 195
4 50 261
4 51 46
4 52 143
4 53 268
4 54 123
4 55 105
4 56 157
4 57 146
4 58 144
4 59 119
4 60 91
4 61 57
4 62 228
4 63 116
4 64 126
4 65 128
4 66 57
4 67 121
4 68 0
4 69 238
4 70 95
4 71 125
4 72 117
4 73 47
4 74 88
4 75 236
4 76 188
4 77 191
4 78 68
4 79 246
4 80 75
4 81 153
4 82 143
4 83 85
4 84 184
4 85 219
4 86 68
4 87 46
4 88 93
4 89 237
4 90 203
5 6 217
5 7 38
5 8 99
5 9 253
5 10 221
5 11 22
5 12 249
5 13 9
5 14 245
5 15 99
5 16 179
5 17 222
5 18 249
5 19 146
5 20 95
5 21 256
5 22 3
5 23 15
5 24 246
5 25 257
5 26 159
5 27 151
5 28 177
5 29 162
5 30 32
5 31 178
5 32 100
5 33 267
5 34 64
5 35 167
5 36 42
5 37 43
5 38 11
5 39 94
5 40 252
5 41 241
5 42 34
5 43 214
5 44 89
5 45 263
5 46 92
5 47 89
5 48 114
5 49 104
5 50 195
5 51 113
5 52 74
5 53 216
5 54 248
5 55 163
5 56 191
5 57 226
5 58 176
5 59 98
5 60 35
5 61 95
5 62 151
5 63 150
5 64 189
5 65 223
5 66 36
5 67 267
5 68 182
5 69 12
5 70 216
5 71 61
5 72 83
5 73 216
5 74 186
5 75 18
5 76 176
5 77 99
5 78 232
5 79 75
5 80 264
5 81 205
5 82 222
5 83 51
5 84 143
5 85 68
5 86 98
5 87 24
5 88 52
5 89 150
5 90 143
6 7 56
6 8 38
6 9 108
6 10 180
6 11 41
6 12 185
6 13 222
6 14 121
6 15 132
6 16 162
6 17 214
6 18 220
6 19 234
6 20 145
6 21 238
6 22 75
6 23 8
6 24 73
6 25 252
6 26 229
6 27 6
6 28 173
6 29 140
6 30 167
6 31 169
6 32 121
6 33 193
6 34 4
6 35 28
6 36 164
6 37 135
6 38 144
6 39 216
6 40 131
6 41 69
6 42 251
6 43 181
6 44 166
6 45 90
6 46 201
6 47 18
6 48 38
6 49 125
6 50 172
6 51 140
6 52 241
6 53 219
6 54 125
6 55 57
6 56 147
6 57 0
6 58 189
6 59 190
6 60 116
6 61 133
6 62 57
6 63 43
6 64 172
6 65 159
6 66 172
6 67 148
6 68 79
6 69 212
6 70 202
6 71 251
6 72 228
6 73 163
6 74 226
6 75 146
6 76 19
6 77 46
6 78 232
6 79 13
6 80 142
6 81 0
6 82 53
6 83 258
6 84 143
6 85 11
6 86 223
6 87 155
6 88 7
6 89 121
6 90 163
7 8 89
7 9 135
7 10 185
7 11 177
7 12 27
7 13 219
7 14 40
7 15 227
7 16 191
7 17 144
7 18 200
7 19 211
7 20 219
7 21 239
7 22 45
7 23 34
7 24 252
7 25 81
7 26 255
7 27 196
7 28 9
7 29 241
7 30 250
7 31 4
7 32 118
7 33 64
7 34 145
7 35 223
7 36 238
7 37 176
7 38 266
7 39 62
7 40 216
7 41 176
7 42 97
7 43 104
7 44 98
7 45 5
7 46 196
7 47 132
7 48 258
7 49 22
7 50 52
7 51 164
7 52 201
7 53 82
7 54 144
7 55 84
7 56 77
7 57 0
7 58 50
7 59 172
7 60 204
7 61 259
7 62 33
7 63 94
7 64 71
7 65 38
7 66 153
7 67 249
7 68 161
7 69 117
7 70 258
7 71 267
7 72 53
7 73 235
7 74 221
7 75 250
7 76 111
7 77 254
7 78 206
7 79 228
7 80 65
7 81 74
7 82 102
7 83 191
7 84 251
7 85 225
7 86 97
7 87 248
7 88 165
7 89 29
7 90 246
8 9 105
8 10 50
8 11 80
8 12 132
8 13 137
8 14 183
8 15 68
8 16 33
8 17 261
8 18 52
8 19 204
8 20 125
8 21 234
8 22 42
8 23 239
8 24 110
8 25 248
8 26 150
8 27 182
8 28 94
8 29 7
8 30 183
8 31 194
8 32 194
8 33 154
8 34 92
8 35 159
8 36 60
8 37 121
8 38 50
8 39 4
8 40 91
8 41 169
8 42 21
8 43 0
8 44 132
8 45 232
8 46 11
8 47 45
8 48 33
8 49 77
8 50 217
8 51 72
8 52 248
8 53 46
8 54 120
8 55 213
8 56 238
8 57 55
8 58 106
8 59 47
8 60 60
8 61 25
8 62 256
8 63 7
8 64 112
8 65 252
8 66 179
8 67 206
8 68 126
8 69 55
8 70 213
8 71 13
8 72 27
8 73 77
8 74 215
8 75 153
8 76 13
8 77 186
8 78 6
8 79 2
8 80 110
8 81 237
8 82 238
8 83 226
8 84 14
8 85 191
8 86 118
8 87 27
8 88 201
8 89 38
8 90 230
9 10 85
9 11 125
9 12 24
9 13 144
9 14 12
9 15 211
9 16 24
9 17 67
9 18 66
9 19 232
9 20 108
9 21 145
9 22 110
9 23 227
9 24 110
9 25 33
9 26 110
9 27 263
9 28 235
9 29 82
9 30 41
9 31 100
9 32 5
9 33 179
9 34 225
9 35 228
9 36 149
9 37 197
9 38 69
9 39 111
9 40 3
9 41 94
9 42 151
9 43 136
9 44 246
9 45 242
9 46 30
9 47 39
9 48 228
9 49 35
9 50 222
9 51 5
9 52 219
9 53 74
9 54 3
9 55 133
9 56 117
9 57 93
9 58 61
9 59 193
9 60 202
9 61 25
9 62 172
9 63 132
9 64 117
9 65 211
9 66 224
9 67 19
9 68 112
9 69 139
9 70 46
9 71 0
9 72 89
9 73 141
9 74 37
9 75 138
9 76 258
9 77 160
9 78 177
9 79 9
9 80 260
9 81 137
9 82 171
9 83 12
9 84 167
9 85 129
9 86 83
9 87 100
9 88 264
9 89 37
9 90 93
10 11 94
10 12 68
10 13 235
10 14 136
10 15 75
10 16 34
10 17 0
10 18 59
10 19 266
10 20 228
10 21 269
10 22 212
10 23 164
10 24 4
10 25 77
10 26 61
10 27 131
10 28 88
10 29 236
10 30 41
10 31 88
10 32 103
10 33 13
10 34 178
10 35 124
10 36 22
10 37 62
10 38 142
10 39 152
10 40 144
10 41 224
10 42 103
10 43 103
10 44 38
10 45 197
10 46 133
10 47 66
10 48 178
10 49 41
10 50 14
10 51 110
10 52 156
10 53 230
10 54 156
10 55 37
10 56 96
10 57 253
10 58 195
10 59 85
10 60 9
10 61 4
10 62 122
10 63 117
10 64 158
10 65 227
10 66 215
10 67 183
10 68 14
10 69 156
10 70 135
10 71 260
10 72 156
10 73 46
10 74 172
10 75 129
10 76 94
10 77 114
10 78 242
10 79 68
10 80 147
10 81 10
10 82 253
10 83 37
10 84 133
10 85 199
10 86 22
10 87 217
10 88 140
10 89 103
10 90 209
11 12 110
11 13 103
11 14 170
11 15 132
11 16 126
11 17 105
11 18 91
11 19 50
11 20 28
11 21 213
11 22 266
11 23 256
11 24 100
11 25 109
11 26 181
11 27 0
11 28 54
11 29 148
11 30 136
11 31 201
11 32 116
11 33 153
11 34 62
11 35 243
11 36 24
11 37 89
11 38 74
11 39 209
11 40 16
11 41 127
11 42 250
11 43 178
11 44 181
11 45 151
11 46 24
11 47 179
11 48 197
11 49 160
11 50 176
11 51 62
11 52 149
11 53 153
11 54 155
11 55 48
11 56 83
11 57 176
11 58 147
11 59 117
11 60 62
11 61 188
11 62 48
11 63 256
11 64 223
11 65 140
11 66 214
11 67 210
11 68 31
11 69 157
11 70 143
11 71 18
11 72 17
11 73 256
11 74 77
11 75 174
11 76 193
11 77 112
11 78 113
11 79 221
11 80 165
11 81 131
11 82 263
11 83 54
11 84 130
11 85 265
11 86 161
11 87 86
11 88 54
11 89 177
11 90 7
12 13 246
12 14 254
12 15 53
12 16 248
12 17 238
12 18 228
12 19 66
12 20 50
12 21 96
12 22 91
12 23 263
12 24 95
12 25 87
12 26 77
12 27 119
12 28 164
12 29 181
12 30 222
12 31 6
12 32 262
12 33 160
12 34 150
12 35 84
12 36 146
12 37 111
12 38 35
12 39 187
12 40 81
12 41 1
12 42 196
12 43 10
12 44 233
12 45 194
12 46 118
12 47 19
12 48 260
12 49 255
12 50 221
12 51 225
12 52 52
12 53 80
12 54 201
12 55 157
12 56 119
12 57 58
12 58 214
12 59 127
12 60 223
12 61 208
12 62 114
12 63 208
12 64 13
12 65 8
12 66 39
12 67 236
12 68 200
12 69 245
12 70 234
12 71 3
12 72 153
12 73 28
12 74 108
12 75 97
12 76 214
12 77 74
12 78 145
12 79 127
12 80 41
12 81 40
12 82 33
12 83 16
12 84 164
12 85 152
12 86 75
12 87 86
12 88 116
12 89 26
12 90 133
13 14 218
13 15 167
13 16 97
13 17 267
13 18 236
13 19 172
13 20 189
13 21 121
13 22 45
13 23 63
13 24 129
13 25 192
13 26 180
13 27 28
13 28 148
13 29 266
13 30 10
13 31 163
13 32 112
13 33 186
13 34 231
13 35 226
13 36 97
13 37 54
13 38 110
13 39 151
13 40 245
13 41 68
13 42 249
13 43 35
13 44 238
13 45 147
13 46 226
13 47 243
13 48 200
13 49 153
13 50 72
13 51 200
13 52 16
13 53 128
13 54 216
13 55 60
13 56 103
13 57 41
13 58 24
13 59 38
13 60 130
13 61 228
13 62 107
13 63 171
13 64 101
13 65 11
13 66 100
13 67 43
13 68 16
13 69 56
13 70 11
13 71 79
13 72 215
13 73 263
13 74 148
13 75 80
13 76 214
13 77 197
13 78 199
13 79 24
13 80 88
13 81 267
13 82 142
13 83 58
13 84 25
13 85 46
13 86 265
13 87 15
13 88 198
13 89 85
13 90 249
14 15 269
14 16 116
14 17 6
14 18 136
14 19 175
14 20 214
14 21 81
14 22 222
14 23 102
14 24 13
14 25 158
14 26 151
14 27 107
14 28 187
14 29 97
14 30 130
14 31 170
14 32 182
14 33 38
14 34 14
14 35 3
14 36 209
14 37 160
14 38 15
14 39 107
14 40 226
14 41 169
14 42 33
14 43 250
14 44 246
14 45 268
14 46 140
14 47 95
14 48 226
14 49 38
14 50 28
14 51 244
14 52 235
14 53 184
14 54 235
14 55 238
14 56 265
14 57 64
14 58 176
14 59 2
14 60 141
14 61 157
14 62 145
14 63 152
14 64 192
14 65 72
14 66 139
14 67 186
14 68 60
14 69 197
14 70 10
14 71 61
14 72 225
14 73 152
14 74 198
14 75 51
14 76 259
14 77 58
14 78 71
14 79 147
14 80 62
14 81 242
14 82 106
14 83 225
14 84 217
14 85 240
14 86 258
14 87 261
14 88 4
14 89 260
14 90 53
15 16 46
15 17 214
15 18 176
15 19 8
15 20 98
15 21 19
15 22 240
15 23 60
15 24 177
15 25 61
15 26 144
15 27 215
15 28 2
15 29 159
15 30 226
15 31 268
15 32 119
15 33 88
15 34 67
15 35 97
15 36 266
15 37 104
15 38 122
15 39 28
15 40 136
15 41 194
15 42 225
15 43 169
15 44 8
15 45 39
15 46 24
15 47 260
15 48 225
15 49 123
15 50 37
15 51 250
15 52 175
15 53 89
15 54 36
15 55 175
15 56 80
15 57 113
15 58 39
15 59 223
15 60 114
15 61 185
15 62 55
15 63 39
15 64 39
15 65 236
15 66 261
15 67 215
15 68 146
15 69 167
15 70 91
15 71 58
15 72 58
15 73 168
15 74 268
15 75 44
15 76 180
15 77 169
15 78 190
15 79 154
15 80 187
15 81 6
15 82 132
15 83 234
15 84 44
15 85 248
15 86 30
15 87 22
15 88 159
15 89 157
15 90 38
16 17 81
16 18 257
16 19 205
16 20 76
16 21 11
16 22 223
16 23 12
16 24 45
16 25 154
16 26 112
16 27 232
16 28 16
16 29 222
16 30 187
16 31 162
16 32 73
16 33 232
16 34 223
16 35 59
16 36 221
16 37 36
16 38 195
16 39 241
16 40 218
16 41 191
16 42 16
16 43 11
16 44 192
16 45 21
16 46 119
16 47 209
16 48 269
16 49 191
16 50 174
16 51 203
16 52 163
16 53 250
16 54 226
16 55 6
16 56 28
16 57 32
16 58 133
16 59 78
16 60 57
16 61 25
16 62 225
16 63 3
16 64 98
16 65 38
16 66 156
16 67 74
16 68 129
16 69 174
16 70 83
16 71 21
16 72 26
16 73 194
16 74 235
16 75 91
16 76 20
16 77 83
16 78 261
16 79 146
16 80 256
16 81 57
16 82 14
16 83 161
16 84 162
16 85 11
16 86 207
16 87 26
16 88 71
16 89 59
16 90 144
17 18 92
17 19 7
17 20 78
17 21 26
17 22 173
17 23 49
17 24 198
17 25 180
17 26 23
17 27 45
17 28 14
17 29 152
17 30 221
17 31 205
17 32 235
17 33 227
17 34 8
17 35 165
17 36 213
17 37 116
17 38 71
17 39 63
17 40 204
17 41 208
17 42 71
17 43 94
17 44 165
17 45 31
17 46 10
17 47 216
17 48 101
17 49 266
17 50 213
17 51 178
17 52 87
17 53 40
17 54 75
17 55 45
17 56 159
17 57 79
17 58 85
17 59 91
17 60 147
17 61 160
17 62 201
17 63 241
17 64 1
17 65 224
17 66 232
17 67 76
17 68 115
17 69 153
17 70 102
17 71 193
17 72 165
17 73 89
17 74 173
17 75 121
17 76 142
17 77 105
17 78 122
17 79 8
17 80 261
17 81 72
17 82 222
17 83 40
17 84 203
17 85 263
17 86 177
17 87 83
17 88 110
17 89 250
17 90 6
18 19 83
18 20 207
18 21 21
18 22 2
18 23 126
18 24 187
18 25 13
18 26 11
18 27 86
18 28 11
18 29 24
18 30 242
18 31 121
18 32 146
18 33 54
18 34 237
18 35 172
18 36 220
18 37 118
18 38 182
18 39 81
18 40 210
18 41 149
18 42 36
18 43 58
18 44 130
18 45 201
18 46 242
18 47 34
18 48 92
18 49 206
18 50 212
18 51 158
18 52 23
18 53 3
18 54 219
18 55 19
18 56 151
18 57 49
18 58 176
18 59 95
18 60 104
18 61 249
18 62 116
18 63 227
18 64 65
18 65 261
18 66 242
18 67 185
18 68 245
18 69 124
18 70 267
18 71 130
18 72 236
18 73 17
18 74 39
18 75 20
18 76 224
18 77 7
18 78 99
18 79 239
18 80 86
18 81 13
18 82 1
18 83 40
18 84 110
18 85 13
18 86 230
18 87 83
18 88 129
18 89 230
18 90 144
19 20 27
19 21 65
19 22 162
19 23 228
19 24 260
19 25 163
19 26 9
19 27 194
19 28 117
19 29 269
19 30 79
19 31 92
19 32 265
19 33 256
19 34 132
19 35 263
19 36 170
19 37 0
19 38 63
19 39 120
19 40 106
19 41 174
19 42 203
19 43 164
19 44 119
19 45 43
19 46 155
19 47 206
19 48 107
19 49 250
19 50 129
19 51 19
19 52 0
19 53 118
19 54 34
19 55 197
19 56 244
19 57 58
19 58 160
19 59 178
19 60 205
19 61 11
19 62 180
19 63 241
19 64 215
19 65 250
19 66 125
19 67 216
19 68 184
19 69 38
19 70 222
19 71 183
19 72 177
19 73 150
19 74 125
19 75 233
19 76 7
19 77 128
19 78 263
19 79 156
19 80 4
19 81 85
19 82 174
19 83 192
19 84 118
19 85 217
19 86 113
19 87 144
19 88 25
19 89 135
19 90 231
20 21 75
20 22 0
20 23 146
20 24 141
20 25 52
20 26 68
20 27 89
20 28 219
20 29 191
20 30 62
20 31 72
20 32 160
20 33 168
20 34 88
20 35 175
20 36 268
20 37 72
20 38 244
20 39 76
20 40 158
20 41 97
20 42 101
20 43 131
20 44 101
20 45 18
20 46 81
20 47 128
20 48 88
20 49 212
20 50 142
20 51 64
20 52 75
20 53 198
20 54 142
20 55 92
20 56 223
20 57 101
20 58 266
20 59 109
20 60 264
20 61 2
20 62 84
20 63 116
20 64 220
20 65 153
20 66 152
20 67 11
20 68 132
20 69 227
20 70 42
20 71 20
20 72 106
20 73 116
20 74 123
20 75 202
20 76 50
20 77 140
20 78 51
20 79 26
20 80 156
20 81 238
20 82 155
20 83 135
20 84 143
20 85 105
20 86 157
20 87 145
20 88 1
20 89 76
20 90 131
21 22 89
21 23 262
21 24 107
21 25 73
21 26 38
21 27 158
21 28 70
21 29 240
21 30 35
21 31 83
21 32 262
21 33 171
21 34 172
21 35 46
21 36 140
21 37 117
21 38 213
21 39 219
21 40 25
21 41 8
21 42 9
21 43 120
21 44 124
21 45 169
21 46 71
21 47 151
21 48 207
21 49 48
21 50 153
21 51 67
21 52 49
21 53 151
21 54 18
21 55 99
21 56 59
21 57 166
21 58 201
21 59 145
21 60 163
21 61 241
21 62 68
21 63 174
21 64 48
21 65 107
21 66 225
21 67 160
21 68 118
21 69 148
21 70 149
21 71 142
21 72 159
21 73 10
21 74 137
21 75 77
21 76 76
21 77 253
21 78 257
21 79 262
21 80 84
21 81 145
21 82 41
21 83 124
21 84 166
21 85 240
21 86 187
21 87 18
21 88 67
21 89 217
21 90 101
22 23 41
22 24 166
22 25 108
22 26 35
22 27 231
22 28 228
22 29 163
22 30 72
22 31 135
22 32 69
22 33 195
22 34 268
22 35 48
22 36 129
22 37 4
22 38 26
22 39 159
22 40 148
22 41 263
22 42 229
22 43 199
22 44 49
22 45 66
22 46 57
22 47 258
22 48 129
22 49 214
22 50 171
22 51 257
22 52 101
22 53 208
22 54 115
22 55 263
22 56 149
22 57 35
22 58 207
22 59 105
22 60 157
22 61 120
22 62 54
22 63 11
22 64 144
22 65 135
22 66 2
22 67 143
22 68 29
22 69 236
22 70 114
22 71 103
22 72 117
22 73 4
22 74 247
22 75 120
22 76 148
22 77 83
22 78 230
22 79 160
22 80 37
22 81 225
22 82 141
22 83 150
22 84 113
22 85 236
22 86 65
22 87 257
22 88 248
22 89 179
22 90 189
23 24 153
23 25 195
23 26 261
23 27 142
23 28 100
23 29 243
23 30 11
23 31 238
23 32 48
23 33 41
23 34 165
23 35 81
23 36 157
23 37 215
23 38 157
23 39 133
23 40 66
23 41 6
23 42 13
23 43 72
23 44 162
23 45 65
23 46 129
23 47 205
23 48 255
23 49 265
23 50 24
23 51 252
23 52 163
23 53 94
23 54 269
23 55 109
23 56 237
23 57 24
23 58 140
23 59 116
23 60 24
23 61 78
23 62 67
23 63 172
23 64 11
23 65 127
23 66 95
23 67 91
23 68 140
23 69 30
23 70 19
23 71 145
23 72 159
23 73 42
23 74 253
23 75 129
23 76 59
23 77 150
23 78 4
23 79 265
23 80 129
23 81 266
23 82 177
23 83 252
23 84 55
23 85 82
23 86 98
23 87 148
23 88 155
23 89 189
23 90 262
24 25 79
24 26 251
24 27 96
24 28 259
24 29 259
24 30 102
24 31 39
24 32 100
24 33 220
24 34 123
24 35 230
24 36 177
24 37 62
24 38 115
24 39 190
24 40 61
24 41 255
24 42 6
24 43 154
24 44 91
24 45 13
24 46 228
24 47 85
24 48 132
24 49 182
24 50 61
24 51 218
24 52 245
24 53 229
24 54 78
24 55 148
24 56 137
24 57 64
24 58 12
24 59 212
24 60 241
24 61 212
24 62 180
24 63 172
24 64 159
24 65 163
24 66 187
24 67 190
24 68 255
24 69 182
24 70 116
24 71 195
24 72 33
24 73 51
24 74 111
24 75 251
24 76 81
24 77 231
24 78 226
24 79 232
24 80 220
24 81 41
24 82 20
24 83 41
24 84 112
24 85 104
24 86 191
24 87 16
24 88 119
24 89 128
24 90 129
25 26 59
25 27 47
25 28 28
25 29 96
25 30 9
25 31 241
25 32 231
25 33 202
25 34 246
25 35 263
25 36 213
25 37 199
25 38 78
25 39 172
25 40 68
25 41 86
25 42 100
25 43 7
25 44 199
25 45 86
25 46 42
25 47 108
25 48 151
25 49 16
25 50 132
25 51 147
25 52 231
25 53 227
25 54 138
25 55 210
25 56 27
25 57 50
25 58 260
25 59 260
25 60 7
25 61 137
25 62 37
25 63 110
25 64 219
25 65 222
25 66 135
25 67 255
25 68 48
25 69 77
25 70 104
25 71 168
25 72 216
25 73 118
25 74 189
25 75 254
25 76 265
25 77 148
25 78 163
25 79 139
25 80 257
25 81 268
25 82 180
25 83 159
25 84 225
25 85 10
25 86 9
25 87 182
25 88 152
25 89 123
25 90 113
26 27 212
26 28 171
26 29 173
26 30 112
26 31 121
26 32 31
26 33 221
26 34 118
26 35 38
26 36 267
26 37 232
26 38 17
26 39 148
26 40 148
26 41 125
26 42 237
26 43 134
26 44 150
26 45 235
26 46 223
26 47 202
26 48 255
26 49 85
26 50 149
26 51 234
26 52 21
26 53 268
26 54 257
26 55 28
26 56 212
26 57 49
26 58 94
26 59 87
26 60 43
26 61 170
26 62 188
26 63 183
26 64 2
26 65 190
26 66 117
26 67 18
26 68 22
26 69 29
26 70 107
26 71 127
26 72 228
26 73 110
26 74 135
26 75 185
26 76 143
26 77 71
26 78 128
26 79 260
26 80 2
26 81 103
26 82 223
26 83 9
26 84 230
26 85 218
26 86 65
26 87 111
26 88 12
26 89 85
26 90 233
27 28 89
27 29 53
27 30 11
27 31 208
27 32 13
27 33 120
27 34 19
27 35 74
27 36 242
27 37 222
27 38 69
27 39 210
27 40 100
27 41 185
27 42 131
27 43 110
27 44 131
27 45 19
27 46 23
27 47 226
27 48 153
27 49 229
27 50 201
27 51 37
27 52 259
27 53 187
27 54 56
27 55 19
27 56 118
27 57 70
27 58 3
27 59 220
27 60 13
27 61 2
27 62 215
27 63 228
27 64 185
27 65 54
27 66 253
27 67 23
27 68 161
27 69 157
27 70 81
27 71 158
27 72 187
27 73 59
27 74 210
27 75 151
27 76 108
27 77 75
27 78 29
27 79 116
27 80 191
27 81 18
27 82 172
27 83 227
27 84 182
27 85 112
27 86 182
27 87 145
27 88 115
27 89 112
27 90 250
28 29 250
28 30 117
28 31 160
28 32 197
28 33 259
28 34 147
28 35 239
28 36 46
28 37 197
28 38 46
28 39 77
28 40 123
28 41 74
28 42 136
28 43 89
28 44 60
28 45 137
28 46 49
28 47 258
28 48 106
28 49 112
28 50 253
28 51 117
28 52 197
28 53 50
28 54 244
28 55 34
28 56 68
28 57 48
28 58 73
28 59 191
28 60 260
28 61 69
28 62 89
28 63 259
28 64 125
28 65 230
28 66 128
28 67 99
28 68 181
28 69 173
28 70 187
28 71 56
28 72 30
28 73 83
28 74 151
28 75 35
28 76 212
28 77 105
28 78 219
28 79 162
28 80 219
28 81 269
28 82 119
28 83 181
28 84 105
28 85 216
28 86 204
28 87 69
28 88 43
28 89 227
28 90 183
29 30 106
29 31 83
29 32 249
29 33 20
29 34 195
29 35 177
29 36 6
29 37 69
29 38 126
29 39 159
29 40 247
29 41 202
29 42 147
29 43 142
29 44 198
29 45 153
29 46 141
29 47 164
29 48 20
29 49 81
29 50 68
29 51 130
29 52 86
29 53 217
29 54 160
29 55 177
29 56 116
29 57 195
29 58 85
29 59 80
29 60 151
29 61 60
29 62 60
29 63 27
29 64 42
29 65 168
29 66 85
29 67 176
29 68 16
29 69 97
29 70 197
29 71 97
29 72 64
29 73 4
29 74 1
29 75 21
29 76 111
29 77 56
29 78 65
29 79 97
29 80 143
29 81 124
29 82 166
29 83 85
29 84 75
29 85 58
29 86 137
29 87 98
29 88 191
29 89 242
29 90 48
30 31 31
30 32 19
30 33 153
30 34 67
30 35 213
30 36 142
30 37 231
30 38 212
30 39 78
30 40 213
30 41 115
30 42 91
30 43 269
30 44 167
30 45 57
30 46 25
30 47 65
30 48 247
30 49 253
30 50 43
30 51 96
30 52 41
30 53 226
30 54 261
30 55 166
30 56 88
30 57 177
30 58 196
30 59 266
30 60 267
30 61 73
30 62 7
30 63 163
30 64 84
30 65 71
30 66 54
30 67 46
30 68 237
30 69 103
30 70 209
30 71 41
30 72 267
30 73 262
30 74 258
30 75 113
30 76 39
30 77 219
30 78 128
30 79 7
30 80 100
30 81 175
30 82 106
30 83 100
30 84 259
30 85 245
30 86 31
30 87 136
30 88 11
30 89 15
30 90 128
31 32 62
31 33 108
31 34 20
31 35 157
31 36 268
31 37 161
31 38 259
31 39 101
31 40 222
31 41 58
31 42 246
31 43 127
31 44 24
31 45 130
31 46 195
31 47 153
31 48 132
31 49 226
31 50 188
31 51 264
31 52 133
31 53 210
31 54 59
31 55 212
31 56 215
31 57 225
31 58 130
31 59 75
31 60 155
31 61 247
31 62 217
31 63 189
31 64 162
31 65 179
31 66 33
31 67 40
31 68 74
31 69 175
31 70 149
31 71 107
31 72 138
31 73 211
31 74 65
31 75 247
31 76 155
31 77 46
31 78 200
31 79 147
31 80 123
31 81 0
31 82 246
31 83 127
31 84 190
31 85 66
31 86 3
31 87 142
31 88 190
31 89 20
31 90 226
32 33 116
32 34 141
32 35 38
32 36 251
32 37 206
32 38 209
32 39 114
32 40 224
32 41 133
32 42 250
32 43 218
32 44 90
32 45 45
32 46 37
32 47 141
32 48 99
32 49 189
32 50 34
32 51 146
32 52 29
32 53 83
32 54 269
32 55 153
32 56 101
32 57 214
32 58 149
32 59 82
32 60 109
32 61 200
32 62 172
32 63 205
32 64 62
32 65 72
32 66 250
32 67 123
32 68 120
32 69 119
32 70 163
32 71 264
32 72 160
32 73 88
32 74 141
32 75 202
32 76 226
32 77 221
32 78 40
32 79 195
32 80 67
32 81 263
32 82 1
32 83 124
32 84 109
32 85 85
32 86 119
32 87 126
32 88 254
32 89 182
32 90 15
33 34 61
33 35 157
33 36 267
33 37 34
33 38 266
33 39 63
33 40 49
33 41 254
33 42 148
33 43 171
33 44 200
33 45 34
33 46 215
33 47 64
33 48 7
33 49 75
33 50 173
33 51 46
33 52 14
33 53 146
33 54 25
33 55 92
33 56 231
33 57 20
33 58 37
33 59 156
33 60 178
33 61 131
33 62 27
33 63 259
33 64 75
33 65 66
33 66 193
33 67 161
33 68 256
33 69 71
33 70 86
33 71 261
33 72 213
33 73 152
33 74 209
33 75 60
33 76 267
33 77 261
33 78 217
33 79 135
33 80 92
33 81 108
33 82 240
33 83 141
33 84 236
33 85 176
33 86 140
33 87 188
33 88 48
33 89 189
33 90 135
34 35 42
34 36 89
34 37 244
34 38 191
34 39 105
34 40 232
34 41 264
34 42 36
34 43 40
34 44 16
34 45 58
34 46 182
34 47 40
34 48 38
34 49 191
34 50 266
34 51 146
34 52 126
34 53 45
34 54 44
34 55 0
34 56 167
34 57 107
34 58 18
34 59 71
34 60 108
34 61 267
34 62 239
34 63 89
34 64 102
34 65 249
34 66 7
34 67 152
34 68 173
34 69 157
34 70 214
34 71 176
34 72 174
34 73 145
34 74 160
34 75 126
34 76 81
34 77 146
34 78 238
34 79 83
34 80 112
34 81 224
34 82 242
34 83 142
34 84 40
34 85 257
34 86 104
34 87 201
34 88 265
34 89 209
34 90 50
35 36 117
35 37 200
35 38 38
35 39 27
35 40 258
35 41 83
35 42 154
35 43 116
35 44 1
35 45 92
35 46 165
35 47 257
35 48 80
35 49 267
35 50 234
35 51 212
35 52 61
35 53 48
35 54 126
35 55 222
35 56 106
35 57 145
35 58 98
35 59 72
35 60 121
35 61 29
35 62 187
35 63 194
35 64 155
35 65 171
35 66 40
35 67 62
35 68 22
35 69 74
35 70 47
35 71 159
35 72 117
35 73 99
35 74 166
35 75 155
35 76 6
35 77 195
35 78 55
35 79 192
35 80 46
35 81 147
35 82 156
35 83 201
35 84 125
35 85 63
35 86 175
35 87 115
35 88 203
35 89 30
35 90 112
36 37 66
36 38 74
36 39 44
36 40 259
36 41 153
36 42 154
36 43 233
36 44 50
36 45 261
36 46 124
36 47 244
36 48 29
36 49 121
36 50 124
36 51 36
36 52 169
36 53 123
36 54 34
36 55 86
36 56 133
36 57 195
36 58 200
36 59 76
36 60 58
36 61 125
36 62 108
36 63 223
36 64 67
36 65 68
36 66 164
36 67 161
36 68 41
36 69 108
36 70 50
36 71 249
36 72 20
36 73 138
36 74 91
36 75 124
36 76 110
36 77 138
36 78 98
36 79 251
36 80 103
36 81 213
36 82 248
36 83 151
36 84 249
36 85 164
36 86 7
36 87 4
36 88 144
36 89 100
36 90 163
37 38 146
37 39 63
37 40 90
37 41 116
37 42 266
37 43 172
37 44 46
37 45 139
37 46 245
37 47 148
37 48 245
37 49 4
37 50 183
37 51 19
37 52 45
37 53 11
37 54 69
37 55 16
37 56 146
37 57 153
37 58 107
37 59 235
37 60 69
37 61 182
37 62 249
37 63 227
37 64 101
37 65 74
37 66 215
37 67 202
37 68 191
37 69 248
37 70 241
37 71 178
37 72 218
37 73 81
37 74 91
37 75 174
37 76 238
37 77 259
37 78 162
37 79 47
37 80 115
37 81 224
37 82 146
37 83 62
37 84 12
37 85 188
37 86 207
37 87 113
37 88 21
37 89 213
37 90 170
38 39 53
38 40 125
38 41 203
38 42 193
38 43 168
38 44 151
38 45 34
38 46 183
38 47 56
38 48 221
38 49 162
38 50 18
38 51 263
38 52 112
38 53 29
38 54 134
38 55 66
38 56 64
38 57 24
38 58 36
38 59 0
38 60 36
38 61 140
38 62 231
38 63 135
38 64 187
38 65 127
38 66 200
38 67 126
38 68 256
38 69 163
38 70 34
38 71 193
38 72 190
38 73 103
38 74 22
38 75 264
38 76 259
38 77 74
38 78 71
38 79 258
38 80 187
38 81 172
38 82 44
38 83 60
38 84 82
38 85 122
38 86 15
38 87 65
38 88 144
38 89 161
38 90 233
39 40 143
39 41 187
39 42 12
39 43 183
39 44 110
39 45 214
39 46 119
39 47 54
39 48 26
39 49 117
39 50 220
39 51 230
39 52 52
39 53 232
39 54 157
39 55 268
39 56 20
39 57 52
39 58 213
39 59 30
39 60 182
39 61 22
39 62 31
39 63 73
39 64 9
39 65 53
39 66 51
39 67 147
39 68 159
39 69 13
39 70 177
39 71 52
39 72 21
39 73 29
39 74 190
39 75 259
39 76 204
39 77 58
39 78 263
39 79 11
39 80 118
39 81 247
39 82 126
39 83 74
39 84 203
39 85 48
39 86 78
39 87 240
39 88 153
39 89 95
39 90 213
40 41 208
40 42 87
40 43 263
40 44 156
40 45 155
40 46 138
40 47 120
40 48 64
40 49 106
40 50 146
40 51 136
40 52 161
40 53 99
40 54 140
40 55 82
40 56 176
40 57 197
40 58 111
40 59 55
40 60 178
40 61 185
40 62 217
40 63 216
40 64 119
40 65 174
40 66 22
40 67 212
40 68 234
40 69 12
40 70 100
40 71 23
40 72 10
40 73 93
40 74 200
40 75 20
40 76 210
40 77 139
40 78 100
40 79 27
40 80 40
40 81 145
40 82 255
40 83 226
40 84 235
40 85 12
40 86 209
40 87 228
40 88 99
40 89 30
40 90 15
41 42 136
41 43 165
41 44 99
41 45 108
41 46 172
41 47 236
41 48 161
41 49 215
41 50 263
41 51 262
41 52 2
41 53 27
41 54 148
41 55 27
41 56 64
41 57 20
41 58 251
41 59 234
41 60 226
41 61 12
41 62 48
41 63 117
41 64 53
41 65 137
41 66 52
41 67 43
41 68 52
41 69 73
41 70 45
41 71 12
41 72 164
41 73 101
41 74 257
41 75 137
41 76 162
41 77 110
41 78 101
41 79 16
41 80 267
41 81 181
41 82 23
41 83 28
41 84 170
41 85 227
41 86 187
41 87 229
41 88 118
41 89 155
41 90 174
42 43 103
42 44 91
42 45 185
42 46 180
42 47 169
42 48 186
42 49 174
42 50 221
42 51 232
42 52 161
42 53 133
42 54 223
42 55 152
42 56 32
42 57 54
42 58 6
42 59 243
42 60 125
42 61 11
42 62 15
42 63 207
42 64 42
42 65 134
42 66 227
42 67 110
42 68 159
42 69 263
42 70 224
42 71 216
42 72 44
42 73 213
42 74 58
42 75 131
42 76 103
42 77 194
42 78 156
42 79 97
42 80 225
42 81 204
42 82 78
42 83 123
42 84 217
42 85 3
42 86 89
42 87 103
42 88 118
42 89 132
42 90 95
43 44 142
43 45 27
43 46 232
43 47 16
43 48 58
43 49 89
43 50 198
43 51 25
43 52 24
43 53 266
43 54 180
43 55 67
43 56 48
43 57 174
43 58 51
43 59 101
43 60 215
43 61 187
43 62 56
43 63 46
43 64 158
43 65 173
43 66 241
43 67 240
43 68 4
43 69 83
43 70 247
43 71 53
43 72 160
43 73 225
43 74 14
43 75 223
43 76 60
43 77 121
43 78 45
43 79 61
43 80 85
43 81 209
43 82 77
43 83 201
43 84 222
43 85 221
43 86 2
43 87 5
43 88 92
43 89 7
43 90 234
44 45 107
44 46 160
44 47 208
44 48 239
44 49 49
44 50 10
44 51 155
44 52 69
44 53 168
44 54 67
44 55 251
44 56 47
44 57 183
44 58 186
44 59 89
44 60 138
44 61 88
44 62 18
44 63 153
44 64 259
44 65 107
44 66 58
44 67 124
44 68 106
44 69 244
44 70 246
44 71 7
44 72 140
44 73 7
44 74 93
44 75 38
44 76 80
44 77 186
44 78 83
44 79 87
44 80 241
44 81 92
44 82 85
44 83 43
44 84 136
44 85 73
44 86 35
44 87 100
44 88 155
44 89 254
44 90 170
45 46 215
45 47 169
45 48 251
45 49 54
45 50 90
45 51 100
45 52 154
45 53 140
45 54 172
45 55 9
45 56 227
45 57 264
45 58 247
45 59 246
45 60 154
45 61 33
45 62 128
45 63 159
45 64 88
45 65 92
45 66 240
45 67 116
45 68 93
45 69 162
45 70 98
45 71 112
45 72 90
45 73 205
45 74 16
45 75 172
45 76 115
45 77 180
45 78 90
45 79 81
45 80 113
45 81 256
45 82 57
45 83 153
45 84 115
45 85 265
45 86 202
45 87 40
45 88 104
45 89 192
45 90 236
46 47 220
46 48 67
46 49 196
46 50 255
46 51 138
46 52 148
46 53 98
46 54 75
46 55 108
46 56 187
46 57 198
46 58 153
46 59 39
46 60 132
46 61 131
46 62 83
46 63 241
46 64 115
46 65 108
46 66 220
46 67 40
46 68 146
46 69 111
46 70 102
46 71 45
46 72 194
46 73 39
46 74 188
46 75 163
46 76 23
46 77 23
46 78 3
46 79 180
46 80 247
46 81 115
46 82 68
46 83 253
46 84 180
46 85 168
46 86 248
46 87 187
46 88 53
46 89 137
46 90 167
47 48 102
47 49 84
47 50 211
47 51 2
47 52 178
47 53 37
47 54 238
47 55 168
47 56 29
47 57 189
47 58 24
47 59 111
47 60 205
47 61 184
47 62 46
47 63 227
47 64 38
47 65 15
47 66 21
47 67 212
47 68 148
47 69 240
47 70 58
47 71 201
47 72 31
47 73 161
47 74 254
47 75 253
47 76 8
47 77 138
47 78 9
47 79 213
47 80 47
47 81 110
47 82 152
47 83 122
47 84 101
47 85 240
47 86 190
47 87 216
47 88 50
47 89 80
47 90 87
48 49 193
48 50 103
48 51 95
48 52 197
48 53 0
48 54 166
48 55 125
48 56 80
48 57 250
48 58 168
48 59 72
48 60 140
48 61 69
48 62 261
48 63 244
48 64 2
48 65 62
48 66 48
48 67 75
48 68 174
48 69 108
48 70 182
48 71 191
48 72 64
48 73 99
48 74 31
48 75 127
48 76 42
48 77 77
48 78 269
48 79 161
48 80 188
48 81 246
48 82 215
48 83 167
48 84 192
48 85 12
48 86 239
48 87 146
48 88 203
48 89 79
48 90 42
49 50 88
49 51 147
49 52 94
49 53 150
49 54 1
49 55 21
49 56 6
49 57 205
49 58 113
49 59 82
49 60 178
49 61 209
49 62 123
49 63 112
49 64 11
49 65 125
49 66 52
49 67 139
49 68 96
49 69 4
49 70 56
49 71 68
49 72 117
49 73 58
49 74 32
49 75 49
49 76 18
49 77 213
49 78 196
49 79 46
49 80 166
49 81 140
49 82 83
49 83 181
49 84 78
49 85 214
49 86 13
49 87 214
49 88 127
49 89 247
49 90 28
50 51 201
50 52 56
50 53 217
50 54 61
50 55 156
50 56 201
50 57 16
50 58 5
50 59 57
50 60 168
50 61 81
50 62 218
50 63 176
50 64 203
50 65 70
50 66 265
50 67 97
50 68 207
50 69 1
50 70 123
50 71 73
50 72 165
50 73 21
50 74 153
50 75 218
50 76 156
50 77 229
50 78 19
50 79 40
50 80 147
50 81 107
50 82 83
50 83 133
50 84 206
50 85 265
50 86 72
50 87 47
50 88 232
50 89 99
50 90 58
51 52 257
51 53 64
51 54 82
51 55 153
51 56 265
51 57 78
51 58 149
51 59 47
51 60 247
51 61 97
51 62 24
51 63 67
51 64 6
51 65 136
51 66 163
51 67 82
51 68 137
51 69 72
51 70 236
51 71 45
51 72 105
51 73 261
51 74 175
51 75 165
51 76 144
51 77 53
51 78 177
51 79 243
51 80 126
51 81 131
51 82 92
51 83 72
51 84 247
51 85 42
51 86 40
51 87 169
51 88 211
51 89 167
51 90 38
52 53 244
52 54 150
52 55 110
52 56 46
52 57 62
52 58 224
52 59 68
52 60 202
52 61 60
52 62 160
52 63 15
52 64 93
52 65 137
52 66 37
52 67 126
52 68 163
52 69 76
52 70 173
52 71 90
52 72 237
52 73 263
52 74 178
52 75 208
52 76 72
52 77 106
52 78 181
52 79 36
52 80 136
52 81 55
52 82 186
52 83 257
52 84 57
52 85 122
52 86 187
52 87 229
52 88 167
52 89 113
52 90 251
53 54 106
53 55 36
53 56 91
53 57 17
53 58 62
53 59 149
53 60 138
53 61 185
53 62 184
53 63 204
53 64 259
53 65 213
53 66 255
53 67 134
53 68 60
53 69 87
53 70 206
53 71 128
53 72 2
53 73 241
53 74 120
53 75 101
53 76 37
53 77 132
53 78 201
53 79 20
53 80 241
53 81 108
53 82 83
53 83 82
53 84 68
53 85 128
53 86 195
53 87 139
53 88 233
53 89 22
53 90 152
54 55 60
54 56 51
54 57 152
54 58 236
54 59 31
54 60 54
54 61 35
54 62 109
54 63 176
54 64 96
54 65 212
54 66 136
54 67 5
54 68 108
54 69 34
54 70 38
54 71 149
54 72 117
54 73 260
54 74 86
54 75 75
54 76 213
54 77 238
54 78 164
54 79 86
54 80 140
54 81 159
54 82 45
54 83 111
54 84 44
54 85 246
54 86 103
54 87 84
54 88 133
54 89 107
54 90 17
55 56 93
55 57 149
55 58 245
55 59 208
55 60 125
55 61 234
55 62 121
55 63 137
55 64 114
55 65 161
55 66 200
55 67 233
55 68 27
55 69 10
55 70 205
55 71 166
55 72 246
55 73 46
55 74 245
55 75 126
55 76 146
55 77 117
55 78 151
55 79 71
55 80 136
55 81 174
55 82 18
55 83 194
55 84 174
55 85 140
55 86 245
55 87 92
55 88 238
55 89 204
55 90 47
56 57 244
56 58 127
56 59 16
56 60 70
56 61 268
56 62 6
56 63 102
56 64 192
56 65 240
56 66 61
56 67 16
56 68 170
56 69 24
56 70 250
56 71 252
56 72 206
56 73 28
56 74 116
56 75 143
56 76 24
56 77 155
56 78 72
56 79 119
56 80 92
56 81 85
56 82 117
56 83 232
56 84 198
56 85 205
56 86 146
56 87 138
56 88 180
56 89 29
56 90 56
57 58 231
57 59 145
57 60 47
57 61 193
57 62 223
57 63 135
57 64 21
57 65 5
57 66 203
57 67 238
57 68 184
57 69 219
57 70 115
57 71 48
57 72 172
57 73 81
57 74 44
57 75 19
57 76 220
57 77 122
57 78 233
57 79 220
57 80 2
57 81 181
57 82 205
57 83 39
57 84 58
57 85 61
57 86 131
57 87 59
57 88 121
57 89 106
57 90 95
58 59 234
58 60 61
58 61 255
58 62 48
58 63 158
58 64 123
58 65 206
58 66 47
58 67 135
58 68 200
58 69 249
58 70 208
58 71 210
58 72 191
58 73 43
58 74 28
58 75 58
58 76 70
58 77 91
58 78 264
58 79 219
58 80 214
58 81 63
58 82 244
58 83 61
58 84 169
58 85 268
58 86 266
58 87 53
58 88 15
58 89 7
58 90 103
59 60 58
59 61 39
59 62 236
59 63 93
59 64 221
59 65 203
59 66 137
59 67 206
59 68 80
59 69 217
59 70 1
59 71 177
59 72 145
59 73 223
59 74 61
59 75 238
59 76 194
59 77 165
59 78 221
59 79 60
59 80 128
59 81 172
59 82 155
59 83 109
59 84 268
59 85 73
59 86 206
59 87 203
59 88 160
59 89 27
59 90 256
60 61 164
60 62 62
60 63 21
60 64 69
60 65 95
60 66 162
60 67 78
60 68 4
60 69 119
60 70 177
60 71 175
60 72 216
60 73 55
60 74 186
60 75 231
60 76 254
60 77 103
60 78 76
60 79 229
60 80 257
60 81 263
60 82 181
60 83 255
60 84 37
60 85 175
60 86 26
60 87 139
60 88 90
60 89 60
60 90 162
61 62 142
61 63 252
61 64 268
61 65 186
61 66 85
61 67 165
61 68 113
61 69 182
61 70 206
61 71 255
61 72 234
61 73 2
61 74 207
61 75 196
61 76 124
61 77 137
61 78 24
61 79 67
61 80 60
61 81 28
61 82 18
61 83 170
61 84 73
61 85 60
61 86 152
61 87 47
61 88 210
61 89 138
61 90 109
62 63 182
62 64 27
62 65 196
62 66 190
62 67 50
62 68 148
62 69 267
62 70 49
62 71 245
62 72 112
62 73 169
62 74 165
62 75 13
62 76 202
62 77 188
62 78 154
62 79 54
62 80 181
62 81 209
62 82 74
62 83 132
62 84 58
62 85 181
62 86 63
62 87 259
62 88 192
62 89 142
62 90 103
63 64 213
63 65 241
63 66 208
63 67 92
63 68 141
63 69 111
63 70 58
63 71 42
63 72 206
63 73 267
63 74 117
63 75 19
63 76 221
63 77 165
63 78 130
63 79 155
63 80 183
63 81 89
63 82 93
63 83 12
63 84 229
63 85 25
63 86 74
63 87 149
63 88 147
63 89 7
63 90 28
64 65 208
64 66 127
64 67 115
64 68 143
64 69 234
64 70 6
64 71 44
64 72 238
64 73 154
64 74 180
64 75 214
64 76 87
64 77 255
64 78 72
64 79 178
64 80 211
64 81 233
64 82 238
64 83 222
64 84 118
64 85 263
64 86 206
64 87 94
64 88 221
64 89 230
64 90 118
65 66 267
65 67 63
65 68 10
65 69 97
65 70 70
65 71 57
65 72 250
65 73 49
65 74 215
65 75 51
65 76 83
65 77 125
65 78 71
65 79 235
65 80 55
65 81 109
65 82 191
65 83 92
65 84 55
65 85 59
65 86 137
65 87 38
65 88 27
65 89 48
65 90 124
66 67 12
66 68 35
66 69 100
66 70 85
66 71 3
66 72 222
66 73 165
66 74 129
66 75 30
66 76 10
66 77 95
66 78 189
66 79 191
66 80 265
66 81 127
66 82 237
66 83 111
66 84 144
66 85 64
66 86 246
66 87 222
66 88 105
66 89 180
66 90 183
67 68 225
67 69 264
67 70 88
67 71 175
67 72 17
67 73 105
67 74 166
67 75 12
67 76 31
67 77 39
67 78 147
67 79 217
67 80 218
67 81 81
67 82 207
67 83 200
67 84 37
67 85 210
67 86 248
67 87 226
67 88 47
67 89 17
67 90 195
68 69 186
68 70 223
68 71 228
68 72 76
68 73 187
68 74 269
68 75 94
68 76 131
68 77 38
68 78 71
68 79 159
68 80 186
68 81 190
68 82 119
68 83 219
68 84 52
68 85 221
68 86 130
68 87 236
68 88 245
68 89 225
68 90 207
69 70 95
69 71 199
69 72 246
69 73 71
69 74 184
69 75 5
69 76 205
69 77 31
69 78 98
69 79 255
69 80 186
69 81 75
69 82 176
69 83 254
69 84 189
69 85 126
69 86 253
69 87 212
69 88 249
69 89 83
69 90 12
70 71 44
70 72 126
70 73 113
70 74 204
70 75 57
70 76 218
70 77 108
70 78 173
70 79 263
70 80 110
70 81 186
70 82 268
70 83 228
70 84 155
70 85 188
70 86 1
70 87 245
70 88 209
70 89 12
70 90 95
71 72 220
71 73 237
71 74 93
71 75 268
71 76 170
71 77 93
71 78 148
71 79 111
71 80 54
71 81 115
71 82 142
71 83 200
71 84 179
71 85 201
71 86 52
71 87 179
71 88 136
71 89 181
71 90 0
72 73 43
72 74 226
72 75 97
72 76 207
72 77 264
72 78 139
72 79 236
72 80 71
72 81 154
72 82 189
72 83 267
72 84 106
72 85 231
72 86 41
72 87 189
72 88 138
72 89 102
72 90 170
73 74 220
73 75 212
73 76 55
73 77 101
73 78 191
73 79 199
73 80 232
73 81 226
73 82 138
73 83 148
73 84 114
73 85 62
73 86 103
73 87 155
73 88 5
73 89 146
73 90 183
74 75 27
74 76 37
74 77 118
74 78 243
74 79 67
74 80 213
74 81 217
74 82 176
74 83 163
74 84 57
74 85 268
74 86 57
74 87 104
74 88 227
74 89 246
74 90 187
75 76 82
75 77 185
75 78 251
75 79 237
75 80 183
75 81 209
75 82 96
75 83 207
75 84 136
75 85 183
75 86 75
75 87 141
75 88 236
75 89 24
75 90 66
76 77 249
76 78 117
76 79 72
76 80 9
76 81 210
76 82 151
76 83 4
76 84 194
76 85 112
76 86 162
76 87 104
76 88 180
76 89 43
76 90 174
77 78 161
77 79 139
77 80 131
77 81 86
77 82 175
77 83 182
77 84 128
77 85 245
77 86 88
77 87 65
77 88 157
77 89 148
77 90 115
78 79 213
78 80 252
78 81 142
78 82 249
78 83 24
78 84 69
78 85 112
78 86 111
78 87 90
78 88 17
78 89 148
78 90 226
79 80 213
79 81 150
79 82 191
79 83 39
79 84 241
79 85 137
79 86 179
79 87 199
79 88 202
79 89 60
79 90 191
80 81 4
80 82 236
80 83 180
80 84 36
80 85 55
80 86 236
80 87 196
80 88 72
80 89 58
80 90 239
81 82 1
81 83 187
81 84 29
81 85 266
81 86 107
81 87 89
81 88 204
81 89 219
81 90 93
82 83 102
82 84 222
82 85 185
82 86 183
82 87 161
82 88 246
82 89 30
82 90 51
83 84 75
83 85 39
83 86 100
83 87 110
83 88 248
83 89 190
83 90 181
84 85 208
84 86 21
84 87 165
84 88 98
84 89 207
84 90 7
85 86 189
85 87 174
85 88 16
85 89 89
85 90 140
86 87 144
86 88 165
86 89 77
86 90 261
87 88 162
87 89 13
87 90 238
88 89 71
88 90 142
89 90 268
